[684, 711, 695, 662, 674, 694, 690, 674, 683, 671, 1364, 1355, 1363, 1384, 1378, 1332, 1335, 1340, 1339, 1369, 2670, 2696, 2675, 2695, 2684, 2746, 2650, 2707, 2694, 2708, 5392, 5396, 5358, 5374, 5464, 5404, 5379, 5329, 5369, 5352, 10687, 10707, 10716, 10651, 10653, 10655, 10715, 10760, 10723, 10654]
